NAME : S-U-8-1.1879.tour
COMMENT : Length = 1879
COMMENT : Found by LKH [Keld Helsgaun] Thu May 17 23:18:23 2018
TYPE : TOUR
DIMENSION : 31
TOUR_SECTION
1
27
20
17
24
23
18
29
5
2
12
15
3
7
10
8
21
25
22
28
4
13
9
14
16
11
6
26
19
30
31
-1
EOF
